p td 41 123
2 1
3 2
5 3
5 1
6 3
7 4
8 4
8 5
10 8
10 4
12 6
13 8
13 12
13 6
14 2
14 10
15 6
15 5
15 1
16 15
17 5
17 7
17 4
17 13
17 10
18 4
18 14
18 15
18 6
19 9
19 1
19 7
20 7
21 14
21 8
22 3
22 8
23 14
24 6
24 14
24 15
25 14
25 10
25 4
25 7
25 20
26 1
26 12
26 24
26 11
26 20
26 18
27 18
27 6
27 19
27 7
27 20
27 8
28 13
28 11
28 22
28 18
28 5
28 1
28 27
28 25
28 3
28 16
28 21
29 2
29 23
29 20
30 4
30 29
30 16
31 8
31 1
31 16
32 26
32 19
32 31
32 5
32 7
32 29
33 32
33 31
33 21
34 18
34 16
34 29
34 15
34 28
34 21
34 27
34 1
35 21
35 15
35 20
35 13
35 26
35 27
36 21
36 28
37 4
37 12
37 27
37 29
37 24
37 18
37 31
38 13
38 35
38 34
39 34
39 7
39 30
40 3
40 15
41 13
41 14
41 24
41 30
41 4
